(set-logic QF_S)
(declare-fun var0 () String)
(declare-fun var1 () String)
(declare-fun var2 () String)
(declare-fun var3 () String)
(declare-fun var4 () String)
(declare-fun var5 () String)
(declare-fun var6 () String)
(declare-fun var7 () String)
(declare-fun var8 () String)
(declare-fun var9 () String)
(declare-fun var10 () String)
(declare-fun var11 () String)
(declare-fun var12 () String)
(declare-fun var13 () String)
(declare-fun var14 () String)
(declare-fun var15 () String)
(declare-fun var16 () String)
(declare-fun var17 () String)
(declare-fun var18 () String)
(declare-fun var19 () String)
(declare-fun var20 () String)
(declare-fun var21 () String)
(declare-fun var22 () String)
(declare-fun var23 () String)
(declare-fun var24 () String)
(declare-fun var25 () String)
(declare-fun var26 () String)
(declare-fun var27 () String)
(declare-fun var28 () String)
(declare-fun var29 () String)
(declare-fun var30 () String)
(declare-fun var31 () String)
(declare-fun var32 () String)
(declare-fun var33 () String)
(declare-fun var34 () String)
(declare-fun var35 () String)
(declare-fun var36 () String)
(declare-fun var37 () String)
(declare-fun var38 () String)
(declare-fun var39 () String)
(declare-fun var40 () String)
(declare-fun var41 () String)
(declare-fun var42 () String)
(declare-fun var43 () String)
(declare-fun var44 () String)
(declare-fun var45 () String)
(declare-fun var46 () String)
(declare-fun var47 () String)
(declare-fun var48 () String)
(declare-fun var49 () String)
(declare-fun var50 () String)
(declare-fun var51 () String)
(declare-fun var52 () String)
(declare-fun var53 () String)
(declare-fun var54 () String)
(declare-fun var55 () String)
(declare-fun var56 () String)
(declare-fun var57 () String)
(declare-fun var58 () String)
(declare-fun var59 () String)
(declare-fun var60 () String)
(assert (= var0 (Concat var1 var2)))
(assert (= var2 (Concat var3 var4)))
(assert (= var4 (Concat var5 var6)))
(assert (= var6 (Concat var7 var8)))
(assert (= var8 (Concat var9 var10)))
(assert (= var10 (Concat var11 var12)))
(assert (= var12 (Concat var13 var14)))
(assert (= var14 (Concat var15 var16)))
(assert (= var16 (Concat var17 var18)))
(assert (= var18 (Concat var19 var20)))
(assert (= var20 (Concat var21 var22)))
(assert (= var22 (Concat var23 var24)))
(assert (= var24 (Concat var25 var26)))
(assert (= var26 (Concat var27 var28)))
(assert (= var28 (Concat var29 var30)))
(assert (= var30 (Concat var31 var32)))
(assert (= var32 (Concat var33 var34)))
(assert (= var34 (Concat var35 var36)))
(assert (= var36 (Concat var37 var38)))
(assert (= var38 (Concat var39 var40)))
(assert (= var40 (Concat var41 var42)))
(assert (= var42 (Concat var43 var44)))
(assert (= var44 (Concat var45 var46)))
(assert (= var46 (Concat var47 var48)))
(assert (= var48 (Concat var49 var50)))
(assert (= var50 (Concat var51 var52)))
(assert (= var52 (Concat var53 var54)))
(assert (= var54 (Concat var55 var56)))
(assert (= var56 (Concat var57 var58)))
(assert (= var58 (Concat var59 var60)))
(assert (= var0 "solution"))
(assert (= "\"" (CharAt var49 315)))
(assert (= "_" (CharAt var2 992)))
(assert (= "S" (CharAt var32 716)))
(assert (= "/" (CharAt var33 593)))
(assert (= "+" (CharAt var50 705)))
(assert (= "G" (CharAt var38 842)))
(assert (= "Y" (CharAt var36 923)))
(assert (= "u" (CharAt var48 1)))
(assert (= "'" (CharAt var53 939)))
(assert (= "(" (CharAt var54 515)))
(assert (= "p" (CharAt var49 82)))
(assert (= "p" (CharAt var13 913)))
(assert (= ";" (CharAt var0 523)))
(assert (= "E" (CharAt var35 229)))
(assert (= "'" (CharAt var50 505)))
(assert (= "z" (CharAt var18 57)))
(assert (= "L" (CharAt var6 271)))
(assert (= "a" (CharAt var5 568)))
(assert (= "@" (CharAt var31 318)))
(assert (= "$" (CharAt var38 948)))
(assert (= "&" (CharAt var32 480)))
(assert (= "k" (CharAt var17 27)))
(assert (= "i" (CharAt var48 89)))
(assert (= "4" (CharAt var59 87)))
(assert (= "(" (CharAt var27 132)))
(assert (= "k" (CharAt var6 659)))
(assert (= "=" (CharAt var54 295)))
(assert (= "R" (CharAt var3 646)))
(assert (= "9" (CharAt var20 995)))
(assert (= "_" (CharAt var45 788)))
(assert (= "*" (CharAt var44 711)))
(assert (= "l" (CharAt var59 452)))
(assert (= "V" (CharAt var51 229)))
(assert (= "j" (CharAt var17 896)))
(assert (= "5" (CharAt var26 406)))
(assert (= "i" (CharAt var29 224)))
(assert (= "?" (CharAt var54 296)))
(assert (= "X" (CharAt var44 492)))
(assert (= "Q" (CharAt var3 911)))
(assert (= "J" (CharAt var31 451)))
(assert (= ";" (CharAt var38 288)))
(assert (= "i" (CharAt var29 805)))
(assert (= "w" (CharAt var42 794)))
(assert (= "?" (CharAt var42 123)))
(assert (= "=" (CharAt var9 672)))
(assert (= "4" (CharAt var5 555)))
(assert (= "j" (CharAt var54 267)))
(assert (= "U" (CharAt var30 32)))
(assert (= "c" (CharAt var44 185)))
(assert (= "^" (CharAt var43 5)))
(assert (= "S" (CharAt var4 815)))
(assert (= "F" (CharAt var43 113)))
(assert (= "." (CharAt var16 806)))
(assert (= "_" (CharAt var32 491)))
(assert (= "6" (CharAt var11 650)))
(assert (= ";" (CharAt var21 608)))
(assert (= "b" (CharAt var40 236)))
(assert (= "f" (CharAt var13 467)))
(assert (= "~" (CharAt var32 953)))
(assert (= "e" (CharAt var57 797)))
(assert (= "U" (CharAt var51 562)))
(assert (= "x" (CharAt var11 336)))
(assert (= "R" (CharAt var46 480)))
(assert (= "'" (CharAt var28 354)))
(assert (= "u" (CharAt var36 167)))
(assert (= "z" (CharAt var31 616)))
(assert (= "@" (CharAt var3 40)))
(assert (= "u" (CharAt var37 800)))
(assert (= "`" (CharAt var41 644)))
(assert (= "d" (CharAt var12 753)))
(assert (= "j" (CharAt var46 774)))
(assert (= "W" (CharAt var59 886)))
(assert (= "i" (CharAt var0 533)))
(assert (= "g" (CharAt var52 138)))
(assert (= "&" (CharAt var5 985)))
(assert (= "\\" (CharAt var13 561)))
(assert (= "v" (CharAt var49 954)))
(assert (= "&" (CharAt var7 320)))
(assert (= "'" (CharAt var33 451)))
(assert (= "R" (CharAt var40 854)))
(assert (= "m" (CharAt var28 766)))
(assert (= ":" (CharAt var10 970)))
(assert (= "Q" (CharAt var18 874)))
(assert (= "n" (CharAt var26 775)))
(assert (= "o" (CharAt var43 547)))
(assert (= "." (CharAt var51 924)))
(assert (= "#" (CharAt var2 690)))
(assert (= "j" (CharAt var9 887)))
(assert (= "'" (CharAt var44 418)))
(assert (= "b" (CharAt var1 472)))
(assert (= "I" (CharAt var15 987)))
(assert (= ")" (CharAt var58 971)))
(assert (= "H" (CharAt var24 947)))
(assert (= "4" (CharAt var49 144)))
(assert (= "K" (CharAt var22 870)))
(assert (= "W" (CharAt var1 702)))
(assert (= "H" (CharAt var8 470)))
(assert (= "b" (CharAt var30 892)))
(assert (= "d" (CharAt var21 744)))
(assert (= "S" (CharAt var45 582)))
(assert (= "M" (CharAt var49 227)))
(assert (= "i" (CharAt var31 556)))
(assert (= "z" (CharAt var46 835)))
(assert (= "K" (CharAt var49 717)))
(assert (= "~" (CharAt var7 104)))
(assert (= "t" (CharAt var42 210)))
(assert (= "W" (CharAt var7 390)))
(assert (= "2" (CharAt var35 753)))
(assert (= "v" (CharAt var39 361)))
(assert (= "-" (CharAt var18 24)))
(assert (= "!" (CharAt var1 571)))
(assert (= "F" (CharAt var30 273)))
(assert (= "," (CharAt var49 5)))
(assert (= "4" (CharAt var2 849)))
(assert (= "r" (CharAt var36 732)))
(assert (= ":" (CharAt var48 387)))
(assert (= "\\" (CharAt var44 417)))
(assert (= "w" (CharAt var26 772)))
(assert (= "d" (CharAt var27 639)))
(assert (= "B" (CharAt var49 278)))
(assert (= "B" (CharAt var11 323)))
(assert (= "Z" (CharAt var33 950)))
(assert (= "G" (CharAt var57 68)))
(assert (= "q" (CharAt var60 425)))
(assert (= "J" (CharAt var43 516)))
(assert (= "e" (CharAt var5 880)))
(assert (= ":" (CharAt var53 445)))
(assert (= "c" (CharAt var24 417)))
(assert (= "[" (CharAt var51 511)))
(assert (= "c" (CharAt var51 507)))
(assert (= "G" (CharAt var29 660)))
(assert (= "d" (CharAt var7 394)))
(assert (= "(" (CharAt var47 324)))
(assert (= "~" (CharAt var59 235)))
(assert (= "_" (CharAt var49 953)))
(assert (= "V" (CharAt var46 970)))
(assert (= "e" (CharAt var3 33)))
(assert (= "-" (CharAt var56 821)))
(assert (= "3" (CharAt var17 167)))
(assert (= "O" (CharAt var46 760)))
(assert (= "U" (CharAt var6 820)))
(assert (= "B" (CharAt var52 899)))
(assert (= "n" (CharAt var4 565)))
(assert (= "e" (CharAt var45 563)))
(assert (= "F" (CharAt var6 395)))
(assert (= "w" (CharAt var54 419)))
(assert (= "Y" (CharAt var27 551)))
(assert (= "[" (CharAt var20 956)))
(assert (= "T" (CharAt var17 721)))
(assert (= "]" (CharAt var20 879)))
(assert (= "f" (CharAt var3 665)))
(assert (= ")" (CharAt var9 539)))
(assert (= "c" (CharAt var40 40)))
(assert (= "O" (CharAt var29 143)))
(assert (= "2" (CharAt var54 895)))
(assert (= "9" (CharAt var11 403)))
(assert (= "[" (CharAt var30 519)))
(assert (= "m" (CharAt var38 607)))
(assert (= "g" (CharAt var35 568)))
(assert (= "b" (CharAt var39 855)))
(assert (= "b" (CharAt var59 838)))
(assert (= "y" (CharAt var46 698)))
(assert (= "*" (CharAt var59 58)))
(assert (= "?" (CharAt var50 734)))
(assert (= "%" (CharAt var27 790)))
(assert (= "~" (CharAt var48 778)))
(assert (= "g" (CharAt var12 240)))
(assert (= "I" (CharAt var49 132)))
(assert (= "D" (CharAt var15 513)))
(assert (= "j" (CharAt var52 45)))
(assert (= "$" (CharAt var2 64)))
(assert (= "Z" (CharAt var6 917)))
(assert (= "Q" (CharAt var14 147)))
(assert (= "m" (CharAt var21 573)))
(assert (= "3" (CharAt var30 527)))
(assert (= "`" (CharAt var4 92)))
(assert (= "u" (CharAt var54 278)))
(assert (= "J" (CharAt var13 107)))
(assert (= "-" (CharAt var60 73)))
(assert (= "H" (CharAt var44 139)))
(assert (= "v" (CharAt var28 184)))
(assert (= "$" (CharAt var60 739)))
(assert (= "x" (CharAt var16 61)))
(assert (= "." (CharAt var55 243)))
(assert (= "i" (CharAt var26 537)))
(assert (= "B" (CharAt var45 948)))
(assert (= "1" (CharAt var27 265)))
(assert (= "'" (CharAt var19 244)))
(assert (= "?" (CharAt var35 59)))
(assert (= "P" (CharAt var26 391)))
(assert (= "l" (CharAt var39 259)))
(assert (= ")" (CharAt var51 564)))
(assert (= "2" (CharAt var20 960)))
(assert (= "J" (CharAt var36 950)))
(assert (= "v" (CharAt var25 162)))
(assert (= "T" (CharAt var24 525)))
(assert (= "U" (CharAt var7 820)))
(assert (= "0" (CharAt var8 731)))
(assert (= "+" (CharAt var60 440)))
(assert (= "#" (CharAt var4 524)))
(assert (= "W" (CharAt var47 132)))
(assert (= "}" (CharAt var53 364)))
(assert (= "J" (CharAt var5 891)))
(assert (= "i" (CharAt var4 340)))
(assert (= "t" (CharAt var5 358)))
(assert (= "&" (CharAt var55 975)))
(assert (= "?" (CharAt var31 309)))
(assert (= "6" (CharAt var49 300)))
(assert (= "m" (CharAt var26 92)))
(assert (= "$" (CharAt var36 190)))
(assert (= "H" (CharAt var59 556)))
(assert (= "b" (CharAt var38 978)))
(assert (= "5" (CharAt var2 819)))
(assert (= "t" (CharAt var60 548)))
(assert (= "T" (CharAt var42 155)))
(assert (= "5" (CharAt var12 933)))
(assert (= "b" (CharAt var41 371)))
(assert (= "%" (CharAt var37 922)))
(assert (= "/" (CharAt var57 316)))
(assert (= "m" (CharAt var7 452)))
(assert (= "W" (CharAt var22 614)))
(assert (= "o" (CharAt var41 458)))
(assert (= "F" (CharAt var45 20)))
(assert (= "d" (CharAt var26 988)))
(assert (= "z" (CharAt var10 24)))
(assert (= "U" (CharAt var36 642)))
(assert (= "." (CharAt var46 55)))
(assert (= "m" (CharAt var41 256)))
(assert (= "g" (CharAt var51 149)))
(assert (= "X" (CharAt var17 524)))
(assert (= "'" (CharAt var18 918)))
(assert (= "\"" (CharAt var41 938)))
(assert (= "!" (CharAt var30 255)))
(assert (= "P" (CharAt var58 487)))
(assert (= "z" (CharAt var36 558)))
(assert (= "v" (CharAt var56 501)))
(assert (= "Q" (CharAt var54 76)))
(assert (= ">" (CharAt var30 65)))
(assert (= "?" (CharAt var38 818)))
(assert (= "6" (CharAt var11 613)))
(assert (= "]" (CharAt var56 359)))
(assert (= "8" (CharAt var59 331)))
(assert (= "5" (CharAt var45 942)))
(assert (= ">" (CharAt var45 488)))
(assert (= "-" (CharAt var5 363)))
(assert (= "'" (CharAt var34 539)))
(assert (= "C" (CharAt var28 659)))
(assert (= "~" (CharAt var41 506)))
(assert (= "." (CharAt var29 859)))
(assert (= "l" (CharAt var0 972)))
(assert (= "8" (CharAt var41 43)))
(assert (= "6" (CharAt var9 877)))
(assert (= "Q" (CharAt var20 31)))
(assert (= "[" (CharAt var50 105)))
(assert (= "P" (CharAt var41 286)))
(assert (= "2" (CharAt var24 701)))
(assert (= "f" (CharAt var60 296)))
(assert (= "+" (CharAt var0 690)))
(assert (= "_" (CharAt var13 487)))
(assert (= "G" (CharAt var44 237)))
(assert (= "(" (CharAt var9 635)))
(assert (= "b" (CharAt var50 833)))
(assert (= "g" (CharAt var58 937)))
(assert (= "i" (CharAt var40 713)))
(assert (= "\"" (CharAt var48 339)))
(assert (= "n" (CharAt var14 289)))
(assert (= "h" (CharAt var58 338)))
(assert (= "K" (CharAt var8 700)))
(assert (= "@" (CharAt var18 649)))
(assert (= "V" (CharAt var8 446)))
(assert (= "\\" (CharAt var18 876)))
(assert (= "C" (CharAt var39 556)))
(assert (= "b" (CharAt var49 42)))
(assert (= "f" (CharAt var15 770)))
(assert (= "4" (CharAt var51 559)))
(assert (= "]" (CharAt var5 543)))
(assert (= "+" (CharAt var5 344)))
(assert (= "O" (CharAt var27 409)))
(assert (= "*" (CharAt var24 292)))
(assert (= "'" (CharAt var42 138)))
(assert (= "G" (CharAt var33 525)))
(assert (= "N" (CharAt var24 507)))
(assert (= "M" (CharAt var34 544)))
(assert (= "z" (CharAt var3 860)))
(assert (= "9" (CharAt var51 447)))
(assert (= "^" (CharAt var8 65)))
(assert (= "+" (CharAt var50 102)))
(assert (= "j" (CharAt var49 911)))
(assert (= "X" (CharAt var34 191)))
(assert (= "(" (CharAt var36 175)))
(assert (= "f" (CharAt var42 229)))
(assert (= "V" (CharAt var21 73)))
(assert (= "7" (CharAt var3 821)))
(assert (= "L" (CharAt var49 862)))
(assert (= "'" (CharAt var28 266)))
(assert (= "@" (CharAt var13 589)))
(assert (= "\\" (CharAt var54 664)))
(assert (= "r" (CharAt var50 627)))
(assert (= "[" (CharAt var10 341)))
(assert (= ">" (CharAt var32 37)))
(assert (= "A" (CharAt var41 354)))
(assert (= "-" (CharAt var54 853)))
(assert (= "6" (CharAt var39 250)))
(assert (= "`" (CharAt var4 233)))
(assert (= "5" (CharAt var57 979)))
(assert (= "!" (CharAt var55 138)))
(assert (= "D" (CharAt var27 568)))
(assert (= "I" (CharAt var56 902)))
(assert (= "}" (CharAt var2 841)))
(assert (= "2" (CharAt var42 219)))
(assert (= "y" (CharAt var1 389)))
(assert (= "I" (CharAt var3 342)))
(assert (= "a" (CharAt var41 793)))
(assert (= "W" (CharAt var55 511)))
(assert (= "L" (CharAt var46 931)))
(assert (= "#" (CharAt var38 622)))
(assert (= "T" (CharAt var22 369)))
(assert (= ";" (CharAt var19 921)))
(assert (= "/" (CharAt var7 581)))
(assert (= "p" (CharAt var34 327)))
(assert (= "v" (CharAt var19 722)))
(assert (= "V" (CharAt var48 409)))
(assert (= "K" (CharAt var18 198)))
(assert (= "E" (CharAt var9 186)))
(assert (= ">" (CharAt var10 803)))
(assert (= "#" (CharAt var29 447)))
(assert (= "U" (CharAt var42 765)))
(assert (= "." (CharAt var54 644)))
(assert (= "{" (CharAt var28 503)))
(assert (= "1" (CharAt var46 979)))
(assert (= "`" (CharAt var31 526)))
(assert (= "|" (CharAt var27 506)))
(assert (= "T" (CharAt var32 163)))
(assert (= "," (CharAt var24 192)))
(assert (= "z" (CharAt var26 570)))
(assert (= ")" (CharAt var20 465)))
(assert (= "{" (CharAt var43 604)))
(assert (= "o" (CharAt var7 547)))
(assert (= "N" (CharAt var33 341)))
(assert (= "i" (CharAt var12 592)))
(assert (= "]" (CharAt var42 339)))
(assert (= "4" (CharAt var6 719)))
(assert (= "/" (CharAt var37 147)))
(assert (= "s" (CharAt var43 517)))
(assert (= "_" (CharAt var41 410)))
(assert (= "n" (CharAt var14 408)))
(assert (= "k" (CharAt var56 541)))
(assert (= "O" (CharAt var42 997)))
(assert (= "Y" (CharAt var32 561)))
(assert (= "3" (CharAt var50 966)))
(assert (= "]" (CharAt var53 376)))
(assert (= "7" (CharAt var57 164)))
(assert (= "3" (CharAt var33 274)))
(assert (= "g" (CharAt var36 137)))
(assert (= "[" (CharAt var43 618)))
(assert (= "J" (CharAt var48 158)))
(assert (= "a" (CharAt var41 994)))
(assert (= "b" (CharAt var37 994)))
(assert (= "c" (CharAt var24 406)))
(assert (= "b" (CharAt var25 623)))
(assert (= ";" (CharAt var11 526)))
(assert (= "R" (CharAt var56 646)))
(assert (= "g" (CharAt var20 393)))
(assert (= "e" (CharAt var36 860)))
(assert (= "@" (CharAt var9 151)))
(assert (= "5" (CharAt var51 807)))
(assert (= "T" (CharAt var56 668)))
(assert (= "N" (CharAt var47 947)))
(assert (= "Q" (CharAt var12 37)))
(assert (= "n" (CharAt var7 457)))
(assert (= "6" (CharAt var42 987)))
(assert (= "." (CharAt var47 376)))
(assert (= "0" (CharAt var22 14)))
(assert (= "5" (CharAt var41 194)))
(assert (= "8" (CharAt var29 500)))
(assert (= "+" (CharAt var53 503)))
(assert (= "t" (CharAt var25 418)))
(assert (= "H" (CharAt var8 881)))
(assert (= "5" (CharAt var50 869)))
(assert (= "[" (CharAt var52 911)))
(assert (= "9" (CharAt var14 496)))
(assert (= "Q" (CharAt var20 556)))
(assert (= "X" (CharAt var48 39)))
(assert (= "m" (CharAt var28 784)))
(assert (= "+" (CharAt var32 982)))
(assert (= "*" (CharAt var31 111)))
(assert (= "\"" (CharAt var26 67)))
(assert (= "}" (CharAt var20 839)))
(assert (= "p" (CharAt var28 214)))
(assert (= "l" (CharAt var53 897)))
(assert (= "f" (CharAt var39 827)))
(assert (= "K" (CharAt var7 402)))
(assert (= "'" (CharAt var32 131)))
(assert (= "+" (CharAt var31 845)))
(assert (= "(" (CharAt var22 667)))
(assert (= "'" (CharAt var48 964)))
(assert (= "X" (CharAt var29 809)))
(assert (= "w" (CharAt var2 504)))
(assert (= "n" (CharAt var2 120)))
(assert (= "," (CharAt var49 228)))
(assert (= "X" (CharAt var11 997)))
(assert (= ")" (CharAt var34 397)))
(assert (= "R" (CharAt var54 909)))
(assert (= "b" (CharAt var41 419)))
(assert (= "b" (CharAt var11 530)))
(assert (= "U" (CharAt var10 951)))
(assert (= "-" (CharAt var16 770)))
(assert (= "=" (CharAt var47 466)))
(assert (= "/" (CharAt var25 550)))
(assert (= "h" (CharAt var53 476)))
(assert (= "c" (CharAt var29 59)))
(assert (= "j" (CharAt var20 741)))
(assert (= "%" (CharAt var2 773)))
(assert (= "w" (CharAt var15 811)))
(assert (= "/" (CharAt var43 73)))
(assert (= "+" (CharAt var16 535)))
(assert (= "-" (CharAt var57 635)))
(assert (= "3" (CharAt var20 48)))
(assert (= "p" (CharAt var25 202)))
(assert (= ":" (CharAt var53 627)))
(assert (= "|" (CharAt var38 305)))
(assert (= "b" (CharAt var46 834)))
(assert (= "d" (CharAt var4 376)))
(assert (= "f" (CharAt var50 999)))
(assert (= "Q" (CharAt var52 692)))
(assert (= "H" (CharAt var36 968)))
(assert (= "%" (CharAt var10 197)))
(assert (= "3" (CharAt var37 184)))
(assert (= "V" (CharAt var18 398)))
(assert (= "h" (CharAt var51 268)))
(assert (= "]" (CharAt var42 806)))
(assert (= "N" (CharAt var57 780)))
(assert (= "`" (CharAt var14 329)))
(assert (= "{" (CharAt var57 323)))
(assert (= "b" (CharAt var18 396)))
(assert (= "&" (CharAt var20 733)))
(assert (= "1" (CharAt var30 686)))
(assert (= "{" (CharAt var7 423)))
(assert (= "6" (CharAt var19 88)))
(assert (= "f" (CharAt var12 899)))
(assert (= "." (CharAt var26 748)))
(assert (= "M" (CharAt var13 81)))
(assert (= "Y" (CharAt var12 867)))
(assert (= "$" (CharAt var19 62)))
(assert (= "_" (CharAt var53 651)))
(assert (= "K" (CharAt var20 314)))
(assert (= "y" (CharAt var44 789)))
(assert (= "K" (CharAt var8 780)))
(assert (= "." (CharAt var45 279)))
(assert (= "L" (CharAt var56 70)))
(assert (= "D" (CharAt var10 897)))
(assert (= "n" (CharAt var28 842)))
(assert (= "y" (CharAt var33 123)))
(assert (= "s" (CharAt var8 542)))
(assert (= "i" (CharAt var25 304)))
(assert (= "a" (CharAt var44 43)))
(assert (= "u" (CharAt var52 276)))
(assert (= "z" (CharAt var21 143)))
(assert (= "J" (CharAt var14 344)))
(assert (= "~" (CharAt var28 979)))
(assert (= "H" (CharAt var0 843)))
(assert (= "Q" (CharAt var22 620)))
(assert (= "*" (CharAt var20 753)))
(assert (= "'" (CharAt var8 682)))
(assert (= "\"" (CharAt var27 196)))
(assert (= "<" (CharAt var32 273)))
(assert (= "]" (CharAt var59 577)))
(assert (= "p" (CharAt var2 343)))
(assert (= "|" (CharAt var57 825)))
(assert (= "g" (CharAt var40 716)))
(assert (= "x" (CharAt var54 361)))
(assert (= "X" (CharAt var4 936)))
(assert (= "\"" (CharAt var19 20)))
(assert (= "Y" (CharAt var55 846)))
(assert (= "?" (CharAt var8 564)))
(assert (= "H" (CharAt var44 970)))
(assert (= "t" (CharAt var8 604)))
(assert (= "j" (CharAt var60 819)))
(assert (= "n" (CharAt var51 936)))
(assert (= "m" (CharAt var56 500)))
(assert (= "+" (CharAt var26 208)))
(assert (= "(" (CharAt var23 946)))
(assert (= "E" (CharAt var35 631)))
(assert (= "A" (CharAt var22 361)))
(assert (= "B" (CharAt var5 230)))
(assert (= "4" (CharAt var39 236)))
(assert (= "+" (CharAt var56 809)))
(assert (= "*" (CharAt var48 898)))
(assert (= "[" (CharAt var6 566)))
(assert (= "w" (CharAt var57 816)))
(assert (= "A" (CharAt var10 794)))
(assert (= "W" (CharAt var31 544)))
(assert (= "C" (CharAt var54 668)))
(assert (= "4" (CharAt var48 242)))
(assert (= "z" (CharAt var35 114)))
(assert (= "Y" (CharAt var44 810)))
(assert (= "O" (CharAt var30 992)))
(assert (= "S" (CharAt var41 237)))
(assert (= "a" (CharAt var26 730)))
(assert (= "G" (CharAt var3 451)))
(assert (= "h" (CharAt var51 816)))
(assert (= "%" (CharAt var19 438)))
(assert (= "w" (CharAt var39 585)))
(assert (= "\"" (CharAt var59 285)))
(assert (= "7" (CharAt var17 806)))
(assert (= "X" (CharAt var24 211)))
(assert (= ":" (CharAt var59 11)))
(assert (= "w" (CharAt var27 771)))
(assert (= "d" (CharAt var34 730)))
(assert (= "Z" (CharAt var48 588)))
(assert (= "Y" (CharAt var34 564)))
(assert (= "D" (CharAt var51 355)))
(assert (= "?" (CharAt var53 677)))
(assert (= "2" (CharAt var31 637)))
(assert (= "G" (CharAt var20 949)))
(assert (= "4" (CharAt var47 615)))
(assert (= ":" (CharAt var42 731)))
(assert (= ";" (CharAt var22 591)))
(assert (= "B" (CharAt var25 206)))
(assert (= "u" (CharAt var57 311)))
(assert (= "^" (CharAt var36 485)))
(check-sat)